WARNING: for repeatability, setting FPU to use double precision
============================[ Problem Statistics ]=============================
|                                                                             |
|  Number of variables:            50                                         |
|  Number of clauses:             218                                         |
|  Parse time:                   0.00 s                                       |
|                                                                             |
============================[ Search Statistics ]==============================
| Conflicts |          ORIGINAL         |          LEARNT          | Progress |
|           |    Vars  Clauses Literals |    Limit  Clauses Lit/Cl |          |
===============================================================================
===============================================================================
restarts              : 1
conflicts             : 14             (10167 /sec)
decisions             : 22             (0.00 % random) (15977 /sec)
propagations          : 257            (186638 /sec)
conflict literals     : 78             (17.89 % deleted)
Memory used           : 20.00 MB
CPU time              : 0.001377 s

SATISFIABLE
